0 0
4 0
11 0
12 0
16 0
19 0
25 10
26 10
30 21
31 21
40 21
41 21
44 21
45 21
46 21
47 21
48 21
49 21
50 21
52 21
54 21
55 21
56 21
57 21
58 21
60 21
61 21
62 21
63 21
66 22
68 22
70 22
71 22
72 22
73 22
74 22
75 22
78 22
79 22
81 22
82 22
83 22
88 23
92 23
99 23
102 23
106 23
107 23
109 23
131 24
132 24
134 24
135 24
142 24
